p cnf 284 1018
-30 -22 -35 0
50 -26 -15 0
-39 15 -41 0
45 -16 23 0
-14 22 7 0
11 -2 -3 0
29 42 -6 0
27 -30 -11 0
49 2 -13 0
-43 -14 -47 0
-19 -43 -35 0
50 5 31 0
2 -18 -43 0
25 29 24 0
5 -50 37 0
19 30 -43 0
-3 -5 37 0
35 -32 8 0
-41 21 -45 0
-25 21 31 0
42 49 11 0
-39 33 1 0
-21 36 -2 0
-34 -14 -50 0
-32 -29 -43 0
-8 16 31 0
42 -17 29 0
32 1 45 0
32 23 -44 0
-8 -10 -36 0
40 34 27 0
-27 4 -6 0
44 -6 -4 0
7 40 26 0
-9 32 -27 0
24 -29 -18 0
-10 -50 13 0
-29 48 31 0
28 13 16 0
25 -14 -2 0
1 -2 -40 0
-25 -39 49 0
-3 -40 14 0
44 36 35 0
3 12 -4 0
20 47 33 0
37 19 7 0
-14 -5 45 0
42 35 40 0
44 -11 20 0
2 -3 51 0
-2 -3 -51 0
2 3 -51 0
-2 3 51 0
-4 5 52 0
4 5 -52 0
-4 -5 -52 0
4 -5 52 0
-7 -8 53 0
7 -8 -53 0
-7 8 -53 0
7 8 53 0
-9 -10 54 0
9 -10 -54 0
-9 10 -54 0
9 10 54 0
11 -14 55 0
-11 -14 -55 0
11 14 -55 0
-11 14 55 0
-15 16 56 0
15 16 -56 0
-15 -16 -56 0
15 -16 56 0
17 -19 57 0
-17 -19 -57 0
17 19 -57 0
-17 19 57 0
21 -23 58 0
-21 -23 -58 0
21 23 -58 0
-21 23 58 0
-24 25 59 0
24 25 -59 0
-24 -25 -59 0
24 -25 59 0
-26 -27 60 0
26 -27 -60 0
-26 27 -60 0
26 27 60 0
30 31 61 0
-30 31 -61 0
30 -31 -61 0
-30 -31 61 0
-32 35 62 0
32 35 -62 0
-32 -35 -62 0
32 -35 62 0
-38 -39 63 0
38 -39 -63 0
-38 39 -63 0
38 39 63 0
41 -42 64 0
-41 -42 -64 0
41 42 -64 0
-41 42 64 0
43 -44 65 0
-43 -44 -65 0
43 44 -65 0
-43 44 65 0
-46 -48 66 0
46 -48 -66 0
-46 48 -66 0
46 48 66 0
50 -51 67 0
-50 -51 -67 0
50 51 -67 0
-50 51 67 0
52 -53 68 0
-52 -53 -68 0
52 53 -68 0
-52 53 68 0
54 -55 69 0
-54 -55 -69 0
54 55 -69 0
-54 55 69 0
56 -57 70 0
-56 -57 -70 0
56 57 -70 0
-56 57 70 0
58 -59 71 0
-58 -59 -71 0
58 59 -71 0
-58 59 71 0
60 -61 72 0
-60 -61 -72 0
60 61 -72 0
-60 61 72 0
62 -63 73 0
-62 -63 -73 0
62 63 -73 0
-62 63 73 0
64 -65 74 0
-64 -65 -74 0
64 65 -74 0
-64 65 74 0
66 -67 75 0
-66 -67 -75 0
66 67 -75 0
-66 67 75 0
68 -69 76 0
-68 -69 -76 0
68 69 -76 0
-68 69 76 0
70 -71 77 0
-70 -71 -77 0
70 71 -77 0
-70 71 77 0
72 -73 78 0
-72 -73 -78 0
72 73 -78 0
-72 73 78 0
74 -75 79 0
-74 -75 -79 0
74 75 -79 0
-74 75 79 0
76 -77 80 0
-76 -77 -80 0
76 77 -80 0
-76 77 80 0
-78 -79 80 0
78 -79 -80 0
-78 79 -80 0
78 79 80 0
-1 -5 81 0
1 -5 -81 0
-1 5 -81 0
1 5 81 0
6 -7 82 0
-6 -7 -82 0
6 7 -82 0
-6 7 82 0
9 -13 83 0
-9 -13 -83 0
9 13 -83 0
-9 13 83 0
-15 16 84 0
15 16 -84 0
-15 -16 -84 0
15 -16 84 0
17 -20 85 0
-17 -20 -85 0
17 20 -85 0
-17 20 85 0
-23 -25 86 0
23 -25 -86 0
-23 25 -86 0
23 25 86 0
-27 30 87 0
27 30 -87 0
-27 -30 -87 0
27 -30 87 0
36 -39 88 0
-36 -39 -88 0
36 39 -88 0
-36 39 88 0
40 41 89 0
-40 41 -89 0
40 -41 -89 0
-40 -41 89 0
43 -44 90 0
-43 -44 -90 0
43 44 -90 0
-43 44 90 0
-45 -47 91 0
45 -47 -91 0
-45 47 -91 0
45 47 91 0
80 -81 92 0
-80 -81 -92 0
80 81 -92 0
-80 81 92 0
82 -83 93 0
-82 -83 -93 0
82 83 -93 0
-82 83 93 0
84 -85 94 0
-84 -85 -94 0
84 85 -94 0
-84 85 94 0
86 -87 95 0
-86 -87 -95 0
86 87 -95 0
-86 87 95 0
88 -89 96 0
-88 -89 -96 0
88 89 -96 0
-88 89 96 0
90 -91 97 0
-90 -91 -97 0
90 91 -97 0
-90 91 97 0
92 -93 98 0
-92 -93 -98 0
92 93 -98 0
-92 93 98 0
94 -95 99 0
-94 -95 -99 0
94 95 -99 0
-94 95 99 0
96 -97 100 0
-96 -97 -100 0
96 97 -100 0
-96 97 100 0
-98 -99 100 0
98 -99 -100 0
-98 99 -100 0
98 99 100 0
2 -3 101 0
-2 -3 -101 0
2 3 -101 0
-2 3 101 0
-6 14 102 0
6 14 -102 0
-6 -14 -102 0
6 -14 102 0
-15 16 103 0
15 16 -103 0
-15 -16 -103 0
15 -16 103 0
-19 -20 104 0
19 -20 -104 0
-19 20 -104 0
19 20 104 0
-22 -25 105 0
22 -25 -105 0
-22 25 -105 0
22 25 105 0
26 27 106 0
-26 27 -106 0
26 -27 -106 0
-26 -27 106 0
-28 -29 107 0
28 -29 -107 0
-28 29 -107 0
28 29 107 0
-30 31 108 0
30 31 -108 0
-30 -31 -108 0
30 -31 108 0
33 -34 109 0
-33 -34 -109 0
33 34 -109 0
-33 34 109 0
-36 37 110 0
36 37 -110 0
-36 -37 -110 0
36 -37 110 0
-42 -43 111 0
42 -43 -111 0
-42 43 -111 0
42 43 111 0
44 -46 112 0
-44 -46 -112 0
44 46 -112 0
-44 46 112 0
101 -102 113 0
-101 -102 -113 0
101 102 -113 0
-101 102 113 0
103 -104 114 0
-103 -104 -114 0
103 104 -114 0
-103 104 114 0
105 -106 115 0
-105 -106 -115 0
105 106 -115 0
-105 106 115 0
107 -108 116 0
-107 -108 -116 0
107 108 -116 0
-107 108 116 0
109 -110 117 0
-109 -110 -117 0
109 110 -117 0
-109 110 117 0
111 -112 118 0
-111 -112 -118 0
111 112 -118 0
-111 112 118 0
113 -114 119 0
-113 -114 -119 0
113 114 -119 0
-113 114 119 0
115 -116 120 0
-115 -116 -120 0
115 116 -120 0
-115 116 120 0
117 -118 121 0
-117 -118 -121 0
117 118 -121 0
-117 118 121 0
-119 -120 121 0
119 -120 -121 0
-119 120 -121 0
119 120 121 0
1 3 122 0
-1 3 -122 0
1 -3 -122 0
-1 -3 122 0
-5 -6 123 0
5 -6 -123 0
-5 6 -123 0
5 6 123 0
-8 9 124 0
8 9 -124 0
-8 -9 -124 0
8 -9 124 0
14 -15 125 0
-14 -15 -125 0
14 15 -125 0
-14 15 125 0
-22 -25 126 0
22 -25 -126 0
-22 25 -126 0
22 25 126 0
-27 30 127 0
27 30 -127 0
-27 -30 -127 0
27 -30 127 0
32 34 128 0
-32 34 -128 0
32 -34 -128 0
-32 -34 128 0
-35 37 129 0
35 37 -129 0
-35 -37 -129 0
35 -37 129 0
38 42 130 0
-38 42 -130 0
38 -42 -130 0
-38 -42 130 0
-44 -45 131 0
44 -45 -131 0
-44 45 -131 0
44 45 131 0
-46 48 132 0
46 48 -132 0
-46 -48 -132 0
46 -48 132 0
121 -122 133 0
-121 -122 -133 0
121 122 -133 0
-121 122 133 0
123 -124 134 0
-123 -124 -134 0
123 124 -134 0
-123 124 134 0
125 -126 135 0
-125 -126 -135 0
125 126 -135 0
-125 126 135 0
127 -128 136 0
-127 -128 -136 0
127 128 -136 0
-127 128 136 0
129 -130 137 0
-129 -130 -137 0
129 130 -137 0
-129 130 137 0
131 -132 138 0
-131 -132 -138 0
131 132 -138 0
-131 132 138 0
133 -134 139 0
-133 -134 -139 0
133 134 -139 0
-133 134 139 0
135 -136 140 0
-135 -136 -140 0
135 136 -140 0
-135 136 140 0
137 -138 141 0
-137 -138 -141 0
137 138 -141 0
-137 138 141 0
-139 -140 141 0
139 -140 -141 0
-139 140 -141 0
139 140 141 0
-3 -6 142 0
3 -6 -142 0
-3 6 -142 0
3 6 142 0
7 8 143 0
-7 8 -143 0
7 -8 -143 0
-7 -8 143 0
10 -11 144 0
-10 -11 -144 0
10 11 -144 0
-10 11 144 0
14 15 145 0
-14 15 -145 0
14 -15 -145 0
-14 -15 145 0
16 -18 146 0
-16 -18 -146 0
16 18 -146 0
-16 18 146 0
-19 -21 147 0
19 -21 -147 0
-19 21 -147 0
19 21 147 0
22 23 148 0
-22 23 -148 0
22 -23 -148 0
-22 -23 148 0
-25 27 149 0
25 27 -149 0
-25 -27 -149 0
25 -27 149 0
28 30 150 0
-28 30 -150 0
28 -30 -150 0
-28 -30 150 0
-33 -37 151 0
33 -37 -151 0
-33 37 -151 0
33 37 151 0
-39 41 152 0
39 41 -152 0
-39 -41 -152 0
39 -41 152 0
-43 -46 153 0
43 -46 -153 0
-43 46 -153 0
43 46 153 0
-49 -50 154 0
49 -50 -154 0
-49 50 -154 0
49 50 154 0
142 -143 155 0
-142 -143 -155 0
142 143 -155 0
-142 143 155 0
144 -145 156 0
-144 -145 -156 0
144 145 -156 0
-144 145 156 0
146 -147 157 0
-146 -147 -157 0
146 147 -157 0
-146 147 157 0
148 -149 158 0
-148 -149 -158 0
148 149 -158 0
-148 149 158 0
150 -151 159 0
-150 -151 -159 0
150 151 -159 0
-150 151 159 0
152 -153 160 0
-152 -153 -160 0
152 153 -160 0
-152 153 160 0
154 -155 161 0
-154 -155 -161 0
154 155 -161 0
-154 155 161 0
156 -157 162 0
-156 -157 -162 0
156 157 -162 0
-156 157 162 0
158 -159 163 0
-158 -159 -163 0
158 159 -163 0
-158 159 163 0
160 -161 164 0
-160 -161 -164 0
160 161 -164 0
-160 161 164 0
162 -163 165 0
-162 -163 -165 0
162 163 -165 0
-162 163 165 0
164 165 0
-164 -165 0
4 5 166 0
-4 5 -166 0
4 -5 -166 0
-4 -5 166 0
7 12 167 0
-7 12 -167 0
7 -12 -167 0
-7 -12 167 0
14 15 168 0
-14 15 -168 0
14 -15 -168 0
-14 -15 168 0
17 -18 169 0
-17 -18 -169 0
17 18 -169 0
-17 18 169 0
23 -25 170 0
-23 -25 -170 0
23 25 -170 0
-23 25 170 0
-26 30 171 0
26 30 -171 0
-26 -30 -171 0
26 -30 171 0
-31 32 172 0
31 32 -172 0
-31 -32 -172 0
31 -32 172 0
-33 -34 173 0
33 -34 -173 0
-33 34 -173 0
33 34 173 0
35 -37 174 0
-35 -37 -174 0
35 37 -174 0
-35 37 174 0
-38 -39 175 0
38 -39 -175 0
-38 39 -175 0
38 39 175 0
40 41 176 0
-40 41 -176 0
40 -41 -176 0
-40 -41 176 0
-45 -50 177 0
45 -50 -177 0
-45 50 -177 0
45 50 177 0
166 -167 178 0
-166 -167 -178 0
166 167 -178 0
-166 167 178 0
168 -169 179 0
-168 -169 -179 0
168 169 -179 0
-168 169 179 0
170 -171 180 0
-170 -171 -180 0
170 171 -180 0
-170 171 180 0
172 -173 181 0
-172 -173 -181 0
172 173 -181 0
-172 173 181 0
174 -175 182 0
-174 -175 -182 0
174 175 -182 0
-174 175 182 0
176 -177 183 0
-176 -177 -183 0
176 177 -183 0
-176 177 183 0
178 -179 184 0
-178 -179 -184 0
178 179 -184 0
-178 179 184 0
180 -181 185 0
-180 -181 -185 0
180 181 -185 0
-180 181 185 0
182 -183 186 0
-182 -183 -186 0
182 183 -186 0
-182 183 186 0
-184 -185 186 0
184 -185 -186 0
-184 185 -186 0
184 185 186 0
3 -4 187 0
-3 -4 -187 0
3 4 -187 0
-3 4 187 0
5 -7 188 0
-5 -7 -188 0
5 7 -188 0
-5 7 188 0
8 10 189 0
-8 10 -189 0
8 -10 -189 0
-8 -10 189 0
11 12 190 0
-11 12 -190 0
11 -12 -190 0
-11 -12 190 0
13 -14 191 0
-13 -14 -191 0
13 14 -191 0
-13 14 191 0
-16 20 192 0
16 20 -192 0
-16 -20 -192 0
16 -20 192 0
22 23 193 0
-22 23 -193 0
22 -23 -193 0
-22 -23 193 0
25 27 194 0
-25 27 -194 0
25 -27 -194 0
-25 -27 194 0
31 -32 195 0
-31 -32 -195 0
31 32 -195 0
-31 32 195 0
-34 36 196 0
34 36 -196 0
-34 -36 -196 0
34 -36 196 0
-37 -38 197 0
37 -38 -197 0
-37 38 -197 0
37 38 197 0
39 -41 198 0
-39 -41 -198 0
39 41 -198 0
-39 41 198 0
-46 47 199 0
46 47 -199 0
-46 -47 -199 0
46 -47 199 0
-48 -49 200 0
48 -49 -200 0
-48 49 -200 0
48 49 200 0
187 -188 201 0
-187 -188 -201 0
187 188 -201 0
-187 188 201 0
189 -190 202 0
-189 -190 -202 0
189 190 -202 0
-189 190 202 0
191 -192 203 0
-191 -192 -203 0
191 192 -203 0
-191 192 203 0
193 -194 204 0
-193 -194 -204 0
193 194 -204 0
-193 194 204 0
195 -196 205 0
-195 -196 -205 0
195 196 -205 0
-195 196 205 0
197 -198 206 0
-197 -198 -206 0
197 198 -206 0
-197 198 206 0
199 -200 207 0
-199 -200 -207 0
199 200 -207 0
-199 200 207 0
201 -202 208 0
-201 -202 -208 0
201 202 -208 0
-201 202 208 0
203 -204 209 0
-203 -204 -209 0
203 204 -209 0
-203 204 209 0
205 -206 210 0
-205 -206 -210 0
205 206 -210 0
-205 206 210 0
207 -208 211 0
-207 -208 -211 0
207 208 -211 0
-207 208 211 0
209 -210 212 0
-209 -210 -212 0
209 210 -212 0
-209 210 212 0
211 212 0
-211 -212 0
-1 3 213 0
1 3 -213 0
-1 -3 -213 0
1 -3 213 0
6 7 214 0
-6 7 -214 0
6 -7 -214 0
-6 -7 214 0
-8 9 215 0
8 9 -215 0
-8 -9 -215 0
8 -9 215 0
-10 11 216 0
10 11 -216 0
-10 -11 -216 0
10 -11 216 0
-14 -18 217 0
14 -18 -217 0
-14 18 -217 0
14 18 217 0
21 22 218 0
-21 22 -218 0
21 -22 -218 0
-21 -22 218 0
-23 -25 219 0
23 -25 -219 0
-23 25 -219 0
23 25 219 0
-26 -28 220 0
26 -28 -220 0
-26 28 -220 0
26 28 220 0
-29 -32 221 0
29 -32 -221 0
-29 32 -221 0
29 32 221 0
33 -34 222 0
-33 -34 -222 0
33 34 -222 0
-33 34 222 0
36 37 223 0
-36 37 -223 0
36 -37 -223 0
-36 -37 223 0
38 -41 224 0
-38 -41 -224 0
38 41 -224 0
-38 41 224 0
42 43 225 0
-42 43 -225 0
42 -43 -225 0
-42 -43 225 0
-45 47 226 0
45 47 -226 0
-45 -47 -226 0
45 -47 226 0
-48 -49 227 0
48 -49 -227 0
-48 49 -227 0
48 49 227 0
213 -214 228 0
-213 -214 -228 0
213 214 -228 0
-213 214 228 0
215 -216 229 0
-215 -216 -229 0
215 216 -229 0
-215 216 229 0
217 -218 230 0
-217 -218 -230 0
217 218 -230 0
-217 218 230 0
219 -220 231 0
-219 -220 -231 0
219 220 -231 0
-219 220 231 0
221 -222 232 0
-221 -222 -232 0
221 222 -232 0
-221 222 232 0
223 -224 233 0
-223 -224 -233 0
223 224 -233 0
-223 224 233 0
225 -226 234 0
-225 -226 -234 0
225 226 -234 0
-225 226 234 0
227 -228 235 0
-227 -228 -235 0
227 228 -235 0
-227 228 235 0
229 -230 236 0
-229 -230 -236 0
229 230 -236 0
-229 230 236 0
231 -232 237 0
-231 -232 -237 0
231 232 -237 0
-231 232 237 0
233 -234 238 0
-233 -234 -238 0
233 234 -238 0
-233 234 238 0
235 -236 239 0
-235 -236 -239 0
235 236 -239 0
-235 236 239 0
237 -238 240 0
-237 -238 -240 0
237 238 -240 0
-237 238 240 0
239 240 0
-239 -240 0
-2 -3 241 0
2 -3 -241 0
-2 3 -241 0
2 3 241 0
4 6 242 0
-4 6 -242 0
4 -6 -242 0
-4 -6 242 0
-7 12 243 0
7 12 -243 0
-7 -12 -243 0
7 -12 243 0
13 -14 244 0
-13 -14 -244 0
13 14 -244 0
-13 14 244 0
-16 -18 245 0
16 -18 -245 0
-16 18 -245 0
16 18 245 0
20 24 246 0
-20 24 -246 0
20 -24 -246 0
-20 -24 246 0
-26 32 247 0
26 32 -247 0
-26 -32 -247 0
26 -32 247 0
-33 -34 248 0
33 -34 -248 0
-33 34 -248 0
33 34 248 0
36 -37 249 0
-36 -37 -249 0
36 37 -249 0
-36 37 249 0
38 41 250 0
-38 41 -250 0
38 -41 -250 0
-38 -41 250 0
-43 -44 251 0
43 -44 -251 0
-43 44 -251 0
43 44 251 0
45 47 252 0
-45 47 -252 0
45 -47 -252 0
-45 -47 252 0
240 -241 253 0
-240 -241 -253 0
240 241 -253 0
-240 241 253 0
242 -243 254 0
-242 -243 -254 0
242 243 -254 0
-242 243 254 0
244 -245 255 0
-244 -245 -255 0
244 245 -255 0
-244 245 255 0
246 -247 256 0
-246 -247 -256 0
246 247 -256 0
-246 247 256 0
248 -249 257 0
-248 -249 -257 0
248 249 -257 0
-248 249 257 0
250 -251 258 0
-250 -251 -258 0
250 251 -258 0
-250 251 258 0
252 -253 259 0
-252 -253 -259 0
252 253 -259 0
-252 253 259 0
254 -255 260 0
-254 -255 -260 0
254 255 -260 0
-254 255 260 0
256 -257 261 0
-256 -257 -261 0
256 257 -261 0
-256 257 261 0
258 -259 262 0
-258 -259 -262 0
258 259 -262 0
-258 259 262 0
260 -261 263 0
-260 -261 -263 0
260 261 -263 0
-260 261 263 0
262 263 0
-262 -263 0
2 3 264 0
-2 3 -264 0
2 -3 -264 0
-2 -3 264 0
4 -6 265 0
-4 -6 -265 0
4 6 -265 0
-4 6 265 0
9 -10 266 0
-9 -10 -266 0
9 10 -266 0
-9 10 266 0
-11 12 267 0
11 12 -267 0
-11 -12 -267 0
11 -12 267 0
13 14 268 0
-13 14 -268 0
13 -14 -268 0
-13 -14 268 0
-17 18 269 0
17 18 -269 0
-17 -18 -269 0
17 -18 269 0
-19 -21 270 0
19 -21 -270 0
-19 21 -270 0
19 21 270 0
-22 -28 271 0
22 -28 -271 0
-22 28 -271 0
22 28 271 0
30 33 272 0
-30 33 -272 0
30 -33 -272 0
-30 -33 272 0
-35 38 273 0
35 38 -273 0
-35 -38 -273 0
35 -38 273 0
-41 42 274 0
41 42 -274 0
-41 -42 -274 0
41 -42 274 0
44 -45 275 0
-44 -45 -275 0
44 45 -275 0
-44 45 275 0
264 -265 276 0
-264 -265 -276 0
264 265 -276 0
-264 265 276 0
266 -267 277 0
-266 -267 -277 0
266 267 -277 0
-266 267 277 0
268 -269 278 0
-268 -269 -278 0
268 269 -278 0
-268 269 278 0
270 -271 279 0
-270 -271 -279 0
270 271 -279 0
-270 271 279 0
272 -273 280 0
-272 -273 -280 0
272 273 -280 0
-272 273 280 0
274 -275 281 0
-274 -275 -281 0
274 275 -281 0
-274 275 281 0
276 -277 282 0
-276 -277 -282 0
276 277 -282 0
-276 277 282 0
278 -279 283 0
-278 -279 -283 0
278 279 -283 0
-278 279 283 0
280 -281 284 0
-280 -281 -284 0
280 281 -284 0
-280 281 284 0
-282 -283 284 0
282 -283 -284 0
-282 283 -284 0
282 283 284 0
